
Gurobi 7.5.2 (linux64) logging started Sat Jul  7 16:15:00 2018

Changed value of parameter LogFile to result/ilp/simNo_3-n_100-m_40-s_7-minVAF_0.05-cov_10000-k_1-fn_0.25-fp_0.0001-na_0.15.ILP.gurobiSolverLog
   Prev: gurobi.log  Default: 
Changed value of parameter TimeLimit to 86400.0
   Prev: 1e+100  Min: 0.0  Max: 1e+100  Default: 1e+100
Optimize a model with 639293 rows, 10765 columns and 1940420 nonzeros
Variable types: 0 continuous, 10765 integer (10765 binary)
Coefficient statistics:
  Matrix range     [5e-05, 4e+00]
  Objective range  [1e+00, 2e+01]
  Bounds range     [1e+00, 1e+00]
  RHS range        [6e-02, 2e+00]
Presolve removed 140712 rows and 1144 columns (presolve time = 5s) ...
Presolve removed 142919 rows and 1144 columns (presolve time = 15s) ...
Presolve removed 212719 rows and 1842 columns (presolve time = 15s) ...
Presolve removed 212719 rows and 1842 columns (presolve time = 21s) ...
Presolve removed 212719 rows and 1842 columns
Presolve time: 20.59s
Presolved: 426574 rows, 8923 columns, 1281315 nonzeros
Variable types: 0 continuous, 8923 integer (8923 binary)
Found heuristic solution: objective -6566.279074
Presolved: 8923 rows, 435497 columns, 1290238 nonzeros

Presolve removed 8923 rows and 435497 columns

Root simplex log...

Iteration    Objective       Primal Inf.    Dual Inf.      Time
       0    2.2317227e+01   0.000000e+00   3.994900e+04     28s
   15137   -2.4666698e+02   0.000000e+00   5.709559e+04     30s
   24103   -2.6900686e+02   0.000000e+00   0.000000e+00     33s
   24103   -2.6900686e+02   0.000000e+00   0.000000e+00     34s

Root relaxation: objective -2.690069e+02, 24103 iterations, 8.68 seconds
Total elapsed time = 54.20s
Total elapsed time = 60.81s

    Nodes    |    Current Node    |     Objective Bounds      |     Work
 Expl Unexpl |  Obj  Depth IntInf | Incumbent    BestBd   Gap | It/Node Time

     0     0 -269.00686    0 1642 -6566.2791 -269.00686  95.9%     -   66s
H    0     0                    -315.4775994 -269.00686  14.7%     -   72s
H    0     0                    -286.3038659 -269.00686  6.04%     -   74s
     0     0 -271.55769    0 1690 -286.30387 -271.55769  5.15%     -   91s
H    0     0                    -283.8188529 -271.55769  4.32%     -   98s
     0     0 -271.71636    0 1689 -283.81885 -271.71636  4.26%     -  104s
     0     0 -273.35160    0 1663 -283.81885 -273.35160  3.69%     -  142s
     0     0 -273.69414    0 1724 -283.81885 -273.69414  3.57%     -  154s
     0     0 -273.75497    0 1725 -283.81885 -273.75497  3.55%     -  160s
     0     0 -273.75497    0 1725 -283.81885 -273.75497  3.55%     -  164s
     0     0 -274.31172    0 1681 -283.81885 -274.31172  3.35%     -  176s
     0     0 -274.38607    0 1742 -283.81885 -274.38607  3.32%     -  183s
     0     0 -274.44004    0 1694 -283.81885 -274.44004  3.30%     -  191s
     0     0 -274.44004    0 1693 -283.81885 -274.44004  3.30%     -  195s
     0     0 -274.81877    0 1760 -283.81885 -274.81877  3.17%     -  212s
     0     0 -275.24177    0 1754 -283.81885 -275.24177  3.02%     -  221s
     0     0 -275.24399    0 1754 -283.81885 -275.24399  3.02%     -  225s
     0     0 -275.40535    0 1757 -283.81885 -275.40535  2.96%     -  231s
     0     0 -275.40535    0 1759 -283.81885 -275.40535  2.96%     -  235s
     0     0 -276.37161    0 1781 -283.81885 -276.37161  2.62%     -  250s
     0     0 -276.37161    0 1779 -283.81885 -276.37161  2.62%     -  257s
     0     0 -276.94660    0 1694 -283.81885 -276.94660  2.42%     -  345s
     0     0 -276.94660    0 1642 -283.81885 -276.94660  2.42%     -  387s
     0     0 -276.94660    0  481 -283.81885 -276.94660  2.42%     -  407s
     0     0 -276.94660    0  473 -283.81885 -276.94660  2.42%     -  412s
     0     0 -276.94660    0  473 -283.81885 -276.94660  2.42%     -  415s
     0     0 -277.97782    0 1058 -283.81885 -277.97782  2.06%     -  419s
     0     0 -278.46748    0  852 -283.81885 -278.46748  1.89%     -  441s
     0     0 -278.55723    0  474 -283.81885 -278.55723  1.85%     -  464s
     0     0 -278.55723    0  473 -283.81885 -278.55723  1.85%     -  466s
     0     0 -278.93251    0  700 -283.81885 -278.93251  1.72%     -  471s
     0     0 -279.03732    0  703 -283.81885 -279.03732  1.68%     -  475s
     0     0 -279.03732    0  704 -283.81885 -279.03732  1.68%     -  477s
     0     0 -279.05720    0  670 -283.81885 -279.05720  1.68%     -  483s
H    0     0                    -281.3338400 -279.05720  0.81%     -  486s
     0     0 -279.06595    0  655 -281.33384 -279.06595  0.81%     -  487s
     0     0 -279.06595    0  655 -281.33384 -279.06595  0.81%     -  490s
     0     0 -279.13663    0  727 -281.33384 -279.13663  0.78%     -  502s
     0     0 -279.13663    0  402 -281.33384 -279.13663  0.78%     -  531s
     0     0 -279.13663    0  400 -281.33384 -279.13663  0.78%     -  533s
     0     0 -279.13663    0  439 -281.33384 -279.13663  0.78%     -  538s
     0     0 -279.13663    0  631 -281.33384 -279.13663  0.78%     -  541s
     0     0 -279.47175    0  516 -281.33384 -279.47175  0.66%     -  548s
     0     0 -279.47175    0  269 -281.33384 -279.47175  0.66%     -  550s
     0     0 -279.47175    0  330 -281.33384 -279.47175  0.66%     -  551s
     0     0 -279.47175    0  346 -281.33384 -279.47175  0.66%     -  551s
     0     0 -279.47175    0  344 -281.33384 -279.47175  0.66%     -  551s
     0     0 -280.37540    0  333 -281.33384 -280.37540  0.34%     -  551s
     0     0 -280.43195    0  332 -281.33384 -280.43195  0.32%     -  551s
     0     0 -280.43411    0  266 -281.33384 -280.43411  0.32%     -  551s
     0     0 -280.43411    0  266 -281.33384 -280.43411  0.32%     -  551s
     0     0 -280.43628    0  262 -281.33384 -280.43628  0.32%     -  551s
     0     0 -280.43628    0  104 -281.33384 -280.43628  0.32%     -  552s
     0     0 -280.71259    0   79 -281.33384 -280.71259  0.22%     -  552s
     0     0     cutoff    0      -281.33384 -281.33384  0.00%     -  552s

Cutting planes:
  Gomory: 3
  Clique: 19
  MIR: 1
  Zero half: 10

Explored 1 nodes (86553 simplex iterations) in 552.29 seconds
Thread count was 1 (of 80 available processors)

Solution count 8: -281.334 -281.334 -281.334 ... -6566.28

Optimal solution found (tolerance 1.00e-04)
Best objective -2.813338400098e+02, best bound -2.813338400098e+02, gap 0.0000%
